p tw 117 21061 2 
1 3 
1 4 
1 5 
1 6 
1 7 
1 8 
1 9 
1 10 
1 11 
1 12 
1 13 
1 14 
1 15 
1 16 
1 17 
1 18 
1 19 
1 20 
1 21 
1 22 
1 23 
1 24 
1 25 
1 30 
1 39 
1 49 
1 58 
1 65 
1 72 
1 73 
1 74 
1 75 
1 76 
1 77 
1 78 
2 3 
2 4 
2 5 
2 6 
2 7 
2 8 
2 9 
2 10 
2 11 
2 12 
2 13 
2 14 
2 20 
2 26 
2 27 
2 28 
2 29 
2 30 
2 31 
2 32 
2 33 
2 34 
2 35 
2 36 
2 38 
2 47 
2 76 
2 83 
2 86 
2 98 
2 101 
2 108 
2 114 
2 115 
2 117 
3 4 
3 5 
3 6 
3 7 
3 8 
3 9 
3 10 
3 11 
3 12 
3 13 
3 15 
3 25 
3 26 
3 32 
3 37 
3 38 
3 39 
3 40 
3 41 
3 42 
3 43 
3 44 
3 45 
3 46 
3 53 
3 57 
3 73 
3 84 
3 96 
3 99 
3 104 
3 107 
3 111 
3 114 
4 5 
4 6 
4 7 
4 8 
4 9 
4 10 
4 11 
4 12 
4 13 
4 15 
4 18 
4 27 
4 31 
4 40 
4 47 
4 48 
4 49 
4 50 
4 51 
4 52 
4 53 
4 54 
4 55 
4 56 
4 59 
4 66 
4 72 
4 79 
4 80 
4 81 
4 82 
4 83 
4 84 
5 6 
5 7 
5 8 
5 9 
5 10 
5 11 
5 12 
5 13 
5 16 
5 17 
5 28 
5 36 
5 37 
5 39 
5 47 
5 54 
5 57 
5 58 
5 59 
5 60 
5 61 
5 62 
5 63 
5 64 
5 79 
5 92 
5 95 
5 103 
5 111 
5 112 
5 115 
5 116 
6 7 
6 8 
6 9 
6 10 
6 11 
6 12 
6 13 
6 17 
6 24 
6 29 
6 35 
6 38 
6 45 
6 48 
6 55 
6 57 
6 64 
6 65 
6 66 
6 67 
6 68 
6 69 
6 70 
6 71 
6 74 
6 81 
6 88 
6 93 
6 98 
6 110 
6 111 
7 8 
7 9 
7 10 
7 11 
7 12 
7 13 
7 19 
7 22 
7 27 
7 34 
7 41 
7 43 
7 52 
7 58 
7 60 
7 66 
7 67 
7 73 
7 79 
7 85 
7 86 
7 87 
7 88 
7 89 
7 91 
7 95 
7 97 
7 98 
7 99 
7 100 
8 9 
8 10 
8 11 
8 12 
8 13 
8 20 
8 21 
8 26 
8 32 
8 40 
8 49 
8 50 
8 60 
8 61 
8 65 
8 70 
8 84 
8 85 
8 90 
8 91 
8 92 
8 93 
8 94 
8 100 
8 102 
8 108 
8 110 
8 113 
8 116 
9 10 
9 11 
9 12 
9 13 
9 21 
9 25 
9 29 
9 33 
9 37 
9 42 
9 51 
9 52 
9 62 
9 68 
9 74 
9 77 
9 80 
9 82 
9 86 
9 89 
9 90 
9 94 
9 95 
9 96 
9 101 
9 106 
9 110 
9 112 
10 11 
10 12 
10 13 
10 19 
10 23 
10 28 
10 31 
10 42 
10 44 
10 51 
10 53 
10 64 
10 69 
10 71 
10 75 
10 78 
10 81 
10 87 
10 91 
10 94 
10 99 
10 101 
10 102 
10 103 
10 109 
10 116 
10 117 
11 12 
11 13 
11 23 
11 24 
11 30 
11 34 
11 41 
11 44 
11 54 
11 55 
11 59 
11 63 
11 68 
11 70 
11 76 
11 82 
11 87 
11 90 
11 92 
11 97 
11 104 
11 105 
11 106 
11 107 
11 108 
11 109 
12 13 
12 18 
12 22 
12 33 
12 36 
12 45 
12 46 
12 48 
12 56 
12 61 
12 62 
12 69 
12 77 
12 78 
12 83 
12 85 
12 88 
12 100 
12 103 
12 104 
12 105 
12 106 
12 109 
12 113 
12 114 
13 14 
13 16 
13 35 
13 43 
13 46 
13 50 
13 56 
13 63 
13 67 
13 71 
13 72 
13 75 
13 80 
13 89 
13 93 
13 96 
13 97 
13 102 
13 105 
13 107 
13 112 
13 113 
13 115 
13 117 
14 15 
14 16 
14 17 
14 18 
14 19 
14 20 
14 21 
14 22 
14 23 
14 24 
14 25 
14 26 
14 27 
14 28 
14 29 
14 30 
14 31 
14 32 
14 33 
14 34 
14 35 
14 36 
14 46 
14 56 
14 63 
14 67 
14 72 
14 93 
14 96 
14 97 
14 102 
14 112 
14 117 
15 16 
15 17 
15 18 
15 19 
15 20 
15 21 
15 22 
15 23 
15 24 
15 25 
15 26 
15 27 
15 37 
15 38 
15 39 
15 40 
15 41 
15 42 
15 43 
15 44 
15 45 
15 46 
15 47 
15 48 
15 49 
15 50 
15 51 
15 52 
15 53 
15 54 
15 55 
15 56 
16 17 
16 18 
16 19 
16 20 
16 21 
16 22 
16 23 
16 24 
16 25 
16 28 
16 35 
16 37 
16 43 
16 47 
16 50 
16 57 
16 58 
16 59 
16 60 
16 61 
16 62 
16 63 
16 64 
16 71 
16 75 
16 80 
16 89 
16 105 
16 107 
16 113 
16 115 
17 18 
17 19 
17 20 
17 21 
17 22 
17 23 
17 24 
17 25 
17 29 
17 36 
17 38 
17 39 
17 48 
17 54 
17 57 
17 65 
17 66 
17 67 
17 68 
17 69 
17 70 
17 71 
17 79 
17 92 
17 95 
17 103 
17 111 
17 112 
17 115 
17 116 
18 19 
18 20 
18 21 
18 22 
18 23 
18 24 
18 25 
18 31 
18 33 
18 40 
18 46 
18 48 
18 59 
18 61 
18 66 
18 72 
18 77 
18 79 
18 80 
18 81 
18 82 
18 83 
18 84 
18 88 
18 100 
18 103 
18 105 
18 109 
18 114 
19 20 
19 21 
19 22 
19 23 
19 24 
19 25 
19 27 
19 31 
19 41 
19 44 
19 51 
19 60 
19 64 
19 67 
19 71 
19 73 
19 78 
19 79 
19 85 
19 86 
19 87 
19 88 
19 89 
19 94 
19 99 
19 109 
19 116 
19 117 
20 21 
20 22 
20 23 
20 24 
20 25 
20 32 
20 38 
20 40 
20 47 
20 50 
20 61 
20 65 
20 76 
20 83 
20 85 
20 86 
20 90 
20 91 
20 92 
20 93 
20 94 
20 98 
20 101 
20 108 
20 114 
20 115 
20 117 
21 22 
21 23 
21 24 
21 25 
21 26 
21 33 
21 42 
21 49 
21 51 
21 60 
21 62 
21 68 
21 70 
21 74 
21 80 
21 84 
21 86 
21 90 
21 95 
21 96 
21 100 
21 102 
21 108 
21 110 
21 113 
21 116 
22 23 
22 24 
22 25 
22 34 
22 36 
22 43 
22 45 
22 52 
22 56 
22 58 
22 62 
22 66 
22 69 
22 78 
22 83 
22 85 
22 91 
22 95 
22 97 
22 98 
22 99 
22 100 
22 104 
22 106 
22 113 
23 24 
23 25 
23 28 
23 30 
23 41 
23 42 
23 53 
23 55 
23 59 
23 68 
23 69 
23 75 
23 81 
23 87 
23 91 
23 92 
23 97 
23 101 
23 102 
23 103 
23 106 
23 107 
23 108 
23 109 
24 25 
24 34 
24 35 
24 44 
24 45 
24 54 
24 55 
24 63 
24 64 
24 70 
24 74 
24 76 
24 81 
24 82 
24 87 
24 88 
24 90 
24 93 
24 98 
24 104 
24 105 
24 110 
24 111 
25 29 
25 32 
25 37 
25 52 
25 53 
25 57 
25 73 
25 77 
25 82 
25 84 
25 89 
25 94 
25 96 
25 99 
25 101 
25 104 
25 106 
25 107 
25 110 
25 111 
25 112 
25 114 
26 27 
26 28 
26 29 
26 30 
26 31 
26 32 
26 33 
26 34 
26 35 
26 36 
26 37 
26 38 
26 39 
26 40 
26 41 
26 42 
26 43 
26 44 
26 45 
26 46 
26 49 
26 60 
26 70 
26 84 
26 100 
26 102 
26 108 
26 110 
26 113 
26 116 
27 28 
27 29 
27 30 
27 31 
27 32 
27 33 
27 34 
27 35 
27 36 
27 41 
27 47 
27 48 
27 49 
27 50 
27 51 
27 52 
27 53 
27 54 
27 55 
27 56 
27 60 
27 67 
27 73 
27 79 
27 85 
27 86 
27 87 
27 88 
27 89 
28 29 
28 30 
28 31 
28 32 
28 33 
28 34 
28 35 
28 36 
28 37 
28 42 
28 47 
28 53 
28 57 
28 58 
28 59 
28 60 
28 61 
28 62 
28 63 
28 64 
28 69 
28 75 
28 81 
28 87 
28 91 
28 101 
28 102 
28 103 
29 30 
29 31 
29 32 
29 33 
29 34 
29 35 
29 36 
29 37 
29 38 
29 48 
29 52 
29 57 
29 65 
29 66 
29 67 
29 68 
29 69 
29 70 
29 71 
29 77 
29 82 
29 89 
29 94 
29 101 
29 106 
29 110 
29 112 
30 31 
30 32 
30 33 
30 34 
30 35 
30 36 
30 39 
30 41 
30 49 
30 55 
30 58 
30 59 
30 65 
30 68 
30 72 
30 73 
30 74 
30 75 
30 76 
30 77 
30 78 
30 92 
30 97 
30 106 
30 107 
30 108 
30 109 
31 32 
31 33 
31 34 
31 35 
31 36 
31 40 
31 44 
31 51 
31 59 
31 64 
31 66 
31 71 
31 72 
31 78 
31 79 
31 80 
31 81 
31 82 
31 83 
31 84 
31 94 
31 99 
31 109 
31 116 
31 117 
32 33 
32 34 
32 35 
32 36 
32 40 
32 50 
32 53 
32 57 
32 61 
32 65 
32 73 
32 84 
32 85 
32 90 
32 91 
32 92 
32 93 
32 94 
32 96 
32 99 
32 104 
32 107 
32 111 
32 114 
33 34 
33 35 
33 36 
33 42 
33 46 
33 48 
33 51 
33 61 
33 62 
33 68 
33 74 
33 77 
33 80 
33 86 
33 88 
33 90 
33 95 
33 96 
33 100 
33 103 
33 105 
33 109 
33 114 
34 35 
34 36 
34 43 
34 44 
34 52 
34 54 
34 58 
34 63 
34 66 
34 70 
34 76 
34 82 
34 87 
34 90 
34 91 
34 95 
34 97 
34 98 
34 99 
34 100 
34 104 
34 105 
35 36 
35 43 
35 45 
35 50 
35 55 
35 64 
35 71 
35 74 
35 75 
35 80 
35 81 
35 88 
35 89 
35 93 
35 98 
35 105 
35 107 
35 110 
35 111 
35 113 
35 115 
36 39 
36 45 
36 54 
36 56 
36 62 
36 69 
36 78 
36 79 
36 83 
36 85 
36 92 
36 95 
36 103 
36 104 
36 106 
36 111 
36 112 
36 113 
36 115 
36 116 
37 38 
37 39 
37 40 
37 41 
37 42 
37 43 
37 44 
37 45 
37 46 
37 47 
37 52 
37 57 
37 58 
37 59 
37 60 
37 61 
37 62 
37 63 
37 64 
37 77 
37 82 
37 89 
37 94 
37 101 
37 106 
37 110 
37 112 
38 39 
38 40 
38 41 
38 42 
38 43 
38 44 
38 45 
38 46 
38 47 
38 48 
38 57 
38 65 
38 66 
38 67 
38 68 
38 69 
38 70 
38 71 
38 76 
38 83 
38 86 
38 98 
38 101 
38 108 
38 114 
38 115 
38 117 
39 40 
39 41 
39 42 
39 43 
39 44 
39 45 
39 46 
39 49 
39 54 
39 58 
39 65 
39 72 
39 73 
39 74 
39 75 
39 76 
39 77 
39 78 
39 79 
39 92 
39 95 
39 103 
39 111 
39 112 
39 115 
39 116 
40 41 
40 42 
40 43 
40 44 
40 45 
40 46 
40 50 
40 59 
40 61 
40 65 
40 66 
40 72 
40 79 
40 80 
40 81 
40 82 
40 83 
40 84 
40 85 
40 90 
40 91 
40 92 
40 93 
40 94 
41 42 
41 43 
41 44 
41 45 
41 46 
41 55 
41 59 
41 60 
41 67 
41 68 
41 73 
41 79 
41 85 
41 86 
41 87 
41 88 
41 89 
41 92 
41 97 
41 106 
41 107 
41 108 
41 109 
42 43 
42 44 
42 45 
42 46 
42 51 
42 53 
42 62 
42 68 
42 69 
42 74 
42 75 
42 80 
42 81 
42 86 
42 87 
42 90 
42 91 
42 95 
42 96 
42 101 
42 102 
42 103 
43 44 
43 45 
43 46 
43 50 
43 52 
43 58 
43 66 
43 71 
43 75 
43 80 
43 89 
43 91 
43 95 
43 97 
43 98 
43 99 
43 100 
43 105 
43 107 
43 113 
43 115 
44 45 
44 46 
44 51 
44 54 
44 63 
44 64 
44 70 
44 71 
44 76 
44 78 
44 82 
44 87 
44 90 
44 94 
44 99 
44 104 
44 105 
44 109 
44 116 
44 117 
45 46 
45 55 
45 56 
45 62 
45 64 
45 69 
45 74 
45 78 
45 81 
45 83 
45 85 
45 88 
45 93 
45 98 
45 104 
45 106 
45 110 
45 111 
45 113 
46 48 
46 56 
46 61 
46 63 
46 67 
46 72 
46 77 
46 88 
46 93 
46 96 
46 97 
46 100 
46 102 
46 103 
46 105 
46 109 
46 112 
46 114 
46 117 
47 48 
47 49 
47 50 
47 51 
47 52 
47 53 
47 54 
47 55 
47 56 
47 57 
47 58 
47 59 
47 60 
47 61 
47 62 
47 63 
47 64 
47 76 
47 83 
47 86 
47 98 
47 101 
47 108 
47 114 
47 115 
47 117 
48 49 
48 50 
48 51 
48 52 
48 53 
48 54 
48 55 
48 56 
48 57 
48 61 
48 65 
48 66 
48 67 
48 68 
48 69 
48 70 
48 71 
48 77 
48 88 
48 100 
48 103 
48 105 
48 109 
48 114 
49 50 
49 51 
49 52 
49 53 
49 54 
49 55 
49 56 
49 58 
49 60 
49 65 
49 70 
49 72 
49 73 
49 74 
49 75 
49 76 
49 77 
49 78 
49 84 
49 100 
49 102 
49 108 
49 110 
49 113 
49 116 
50 51 
50 52 
50 53 
50 54 
50 55 
50 56 
50 61 
50 65 
50 71 
50 75 
50 80 
50 85 
50 89 
50 90 
50 91 
50 92 
50 93 
50 94 
50 105 
50 107 
50 113 
50 115 
51 52 
51 53 
51 54 
51 55 
51 56 
51 62 
51 64 
51 68 
51 71 
51 74 
51 78 
51 80 
51 86 
51 90 
51 94 
51 95 
51 96 
51 99 
51 109 
51 116 
51 117 
52 53 
52 54 
52 55 
52 56 
52 58 
52 66 
52 77 
52 82 
52 89 
52 91 
52 94 
52 95 
52 97 
52 98 
52 99 
52 100 
52 101 
52 106 
52 110 
52 112 
53 54 
53 55 
53 56 
53 57 
53 69 
53 73 
53 75 
53 81 
53 84 
53 87 
53 91 
53 96 
53 99 
53 101 
53 102 
53 103 
53 104 
53 107 
53 111 
53 114 
54 55 
54 56 
54 63 
54 70 
54 76 
54 79 
54 82 
54 87 
54 90 
54 92 
54 95 
54 103 
54 104 
54 105 
54 111 
54 112 
54 115 
54 116 
55 56 
55 59 
55 64 
55 68 
55 74 
55 81 
55 88 
55 92 
55 93 
55 97 
55 98 
55 106 
55 107 
55 108 
55 109 
55 110 
55 111 
56 62 
56 63 
56 67 
56 69 
56 72 
56 78 
56 83 
56 85 
56 93 
56 96 
56 97 
56 102 
56 104 
56 106 
56 112 
56 113 
56 117 
57 58 
57 59 
57 60 
57 61 
57 62 
57 63 
57 64 
57 65 
57 66 
57 67 
57 68 
57 69 
57 70 
57 71 
57 73 
57 84 
57 96 
57 99 
57 104 
57 107 
57 111 
57 114 
58 59 
58 60 
58 61 
58 62 
58 63 
58 64 
58 65 
58 66 
58 72 
58 73 
58 74 
58 75 
58 76 
58 77 
58 78 
58 91 
58 95 
58 97 
58 98 
58 99 
58 100 
59 60 
59 61 
59 62 
59 63 
59 64 
59 66 
59 68 
59 72 
59 79 
59 80 
59 81 
59 82 
59 83 
59 84 
59 92 
59 97 
59 106 
59 107 
59 108 
59 109 
60 61 
60 62 
60 63 
60 64 
60 67 
60 70 
60 73 
60 79 
60 84 
60 85 
60 86 
60 87 
60 88 
60 89 
60 100 
60 102 
60 108 
60 110 
60 113 
60 116 
61 62 
61 63 
61 64 
61 65 
61 77 
61 85 
61 88 
61 90 
61 91 
61 92 
61 93 
61 94 
61 100 
61 103 
61 105 
61 109 
61 114 
62 63 
62 64 
62 68 
62 69 
62 74 
62 78 
62 80 
62 83 
62 85 
62 86 
62 90 
62 95 
62 96 
62 104 
62 106 
62 113 
63 64 
63 67 
63 70 
63 72 
63 76 
63 82 
63 87 
63 90 
63 93 
63 96 
63 97 
63 102 
63 104 
63 105 
63 112 
63 117 
64 71 
64 74 
64 78 
64 81 
64 88 
64 93 
64 94 
64 98 
64 99 
64 109 
64 110 
64 111 
64 116 
64 117 
65 66 
65 67 
65 68 
65 69 
65 70 
65 71 
65 72 
65 73 
65 74 
65 75 
65 76 
65 77 
65 78 
65 85 
65 90 
65 91 
65 92 
65 93 
65 94 
66 67 
66 68 
66 69 
66 70 
66 71 
66 72 
66 79 
66 80 
66 81 
66 82 
66 83 
66 84 
66 91 
66 95 
66 97 
66 98 
66 99 
66 100 
67 68 
67 69 
67 70 
67 71 
67 72 
67 73 
67 79 
67 85 
67 86 
67 87 
67 88 
67 89 
67 93 
67 96 
67 97 
67 102 
67 112 
67 117 
68 69 
68 70 
68 71 
68 74 
68 80 
68 86 
68 90 
68 92 
68 95 
68 96 
68 97 
68 106 
68 107 
68 108 
68 109 
69 70 
69 71 
69 75 
69 78 
69 81 
69 83 
69 85 
69 87 
69 91 
69 101 
69 102 
69 103 
69 104 
69 106 
69 113 
70 71 
70 76 
70 82 
70 84 
70 87 
70 90 
70 100 
70 102 
70 104 
70 105 
70 108 
70 110 
70 113 
70 116 
71 75 
71 78 
71 80 
71 89 
71 94 
71 99 
71 105 
71 107 
71 109 
71 113 
71 115 
71 116 
71 117 
72 73 
72 74 
72 75 
72 76 
72 77 
72 78 
72 79 
72 80 
72 81 
72 82 
72 83 
72 84 
72 93 
72 96 
72 97 
72 102 
72 112 
72 117 
73 74 
73 75 
73 76 
73 77 
73 78 
73 79 
73 84 
73 85 
73 86 
73 87 
73 88 
73 89 
73 96 
73 99 
73 104 
73 107 
73 111 
73 114 
74 75 
74 76 
74 77 
74 78 
74 80 
74 81 
74 86 
74 88 
74 90 
74 93 
74 95 
74 96 
74 98 
74 110 
74 111 
75 76 
75 77 
75 78 
75 80 
75 81 
75 87 
75 89 
75 91 
75 101 
75 102 
75 103 
75 105 
75 107 
75 113 
75 115 
76 77 
76 78 
76 82 
76 83 
76 86 
76 87 
76 90 
76 98 
76 101 
76 104 
76 105 
76 108 
76 114 
76 115 
76 117 
77 78 
77 82 
77 88 
77 89 
77 94 
77 100 
77 101 
77 103 
77 105 
77 106 
77 109 
77 110 
77 112 
77 114 
78 83 
78 85 
78 94 
78 99 
78 104 
78 106 
78 109 
78 113 
78 116 
78 117 
79 80 
79 81 
79 82 
79 83 
79 84 
79 85 
79 86 
79 87 
79 88 
79 89 
79 92 
79 95 
79 103 
79 111 
79 112 
79 115 
79 116 
80 81 
80 82 
80 83 
80 84 
80 86 
80 89 
80 90 
80 95 
80 96 
80 105 
80 107 
80 113 
80 115 
81 82 
81 83 
81 84 
81 87 
81 88 
81 91 
81 93 
81 98 
81 101 
81 102 
81 103 
81 110 
81 111 
82 83 
82 84 
82 87 
82 89 
82 90 
82 94 
82 101 
82 104 
82 105 
82 106 
82 110 
82 112 
83 84 
83 85 
83 86 
83 98 
83 101 
83 104 
83 106 
83 108 
83 113 
83 114 
83 115 
83 117 
84 96 
84 99 
84 100 
84 102 
84 104 
84 107 
84 108 
84 110 
84 111 
84 113 
84 114 
84 116 
85 86 
85 87 
85 88 
85 89 
85 90 
85 91 
85 92 
85 93 
85 94 
85 104 
85 106 
85 113 
86 87 
86 88 
86 89 
86 90 
86 95 
86 96 
86 98 
86 101 
86 108 
86 114 
86 115 
86 117 
87 88 
87 89 
87 90 
87 91 
87 101 
87 102 
87 103 
87 104 
87 105 
88 89 
88 93 
88 98 
88 100 
88 103 
88 105 
88 109 
88 110 
88 111 
88 114 
89 94 
89 101 
89 105 
89 106 
89 107 
89 110 
89 112 
89 113 
89 115 
90 91 
90 92 
90 93 
90 94 
90 95 
90 96 
90 104 
90 105 
91 92 
91 93 
91 94 
91 95 
91 97 
91 98 
91 99 
91 100 
91 101 
91 102 
91 103 
92 93 
92 94 
92 95 
92 97 
92 103 
92 106 
92 107 
92 108 
92 109 
92 111 
92 112 
92 115 
92 116 
93 94 
93 96 
93 97 
93 98 
93 102 
93 110 
93 111 
93 112 
93 117 
94 99 
94 101 
94 106 
94 109 
94 110 
94 112 
94 116 
94 117 
95 96 
95 97 
95 98 
95 99 
95 100 
95 103 
95 111 
95 112 
95 115 
95 116 
96 97 
96 99 
96 102 
96 104 
96 107 
96 111 
96 112 
96 114 
96 117 
97 98 
97 99 
97 100 
97 102 
97 106 
97 107 
97 108 
97 109 
97 112 
97 117 
98 99 
98 100 
98 101 
98 108 
98 110 
98 111 
98 114 
98 115 
98 117 
99 100 
99 104 
99 107 
99 109 
99 111 
99 114 
99 116 
99 117 
100 102 
100 103 
100 105 
100 108 
100 109 
100 110 
100 113 
100 114 
100 116 
101 102 
101 103 
101 106 
101 108 
101 110 
101 112 
101 114 
101 115 
101 117 
102 103 
102 108 
102 110 
102 112 
102 113 
102 116 
102 117 
103 105 
103 109 
103 111 
103 112 
103 114 
103 115 
103 116 
104 105 
104 106 
104 107 
104 111 
104 113 
104 114 
105 107 
105 109 
105 113 
105 114 
105 115 
106 107 
106 108 
106 109 
106 110 
106 112 
106 113 
107 108 
107 109 
107 111 
107 113 
107 114 
107 115 
108 109 
108 110 
108 113 
108 114 
108 115 
108 116 
108 117 
109 114 
109 116 
109 117 
110 111 
110 112 
110 113 
110 116 
111 112 
111 114 
111 115 
111 116 
112 115 
112 116 
112 117 
113 115 
113 116 
114 115 
114 117 
115 116 
115 117 
116 117 
